TOUR_SECTION
1
125
170
23
167
42
179
53
22
60
143
193
111
79
156
88
93
11
126
59
49
151
55
50
100
101
16
45
20
186
6
24
68
145
3
162
94
113
142
181
115
109
63
92
15
7
36
46
164
38
131
161
191
123
138
18
82
62
127
72
90
116
183
12
96
132
14
159
182
8
117
122
166
5
160
69
37
128
175
177
140
107
77
152
2
197
78
121
184
80
189
30
163
106
149
4
110
51
10
47
114
103
104
168
41
26
76
120
201
198
74
150
185
86
188
102
71
17
35
158
180
21
75
173
118
39
57
56
40
154
98
135
25
134
178
124
91
129
89
165
29
34
99
33
105
95
194
32
52
85
27
43
83
148
54
81
196
136
112
137
119
13
19
195
67
84
133
28
155
61
172
64
87
146
31
48
200
139
58
174
65
147
190
70
187
199
144
44
176
141
157
66
108
169
9
192
153
171
97
73
130
-1
EOF